NAME: tsp15_9
COMMENT: 15-tsp problem (Padberg/Rinaldi)
TYPE: TSP
DIMENSION: 15
EDGE_WEIGHT_TYPE : EUC_2D
NODE_COORD_SECTION
1 12 15
2 35 11
3 31 23
4 40 35
5 13 36
6 34 4
7 12 31
8 0 18
9 19 39
10 2 8
11 32 9
12 5 21
13 8 29
14 4 31
15 4 9
